c This is a CNF SAT formula in the DIMACS CNF format,
c produced with the bc2cnf translator by Tommi Junttila;
c see http://users.ics.aalto.fi/tjunttil/circuits/index.html
c phi_Gamma <-> 1
c phi_T_transitions <-> 1
c phi_T <-> 1
c phi_sim_leaves <-> 1
c phi_sim_transition <-> 1
c phi_sim <-> 1
c FORMULA <-> 1
c pi_0_6 <-> 2
c pi_0_9 <-> 2
c pi_0_5 <-> 13
c pi_0_8 <-> 13
c pi_0_7 <-> 19
c pi_0_4 <-> 26
c pi_0_3 <-> 32
c pi_0_2 <-> 38
c pi_0_0 <-> 44
c pi_0_1 <-> 44
c alp_Class_3_0 <-> 46
c alp_Class_2_0 <-> 46
c alp_Class_0_0 <-> 46
c alp_Class_3_1 <-> 46
c alp_Class_2_1 <-> 46
c alp_Class_0_1 <-> 46
c alp_Class_2_2 <-> 46
c alp_Class_1_2 <-> 46
c alp_Class_0_2 <-> 46
c alp_Class_2_3 <-> 46
c alp_Class_1_3 <-> 46
c alp_Class_0_3 <-> 46
c alp_Class_3_4 <-> 46
c alp_Class_2_4 <-> 46
c alp_Class_0_4 <-> 46
c alp_Class_3_5 <-> 46
c alp_Class_2_5 <-> 46
c alp_Class_0_5 <-> 46
c alp_Class_3_6 <-> 46
c alp_Class_2_6 <-> 46
c alp_Class_0_6 <-> 46
c alp_Class_2_7 <-> 46
c alp_Class_1_7 <-> 46
c alp_Class_0_7 <-> 46
c alp_Class_3_8 <-> 46
c alp_Class_2_8 <-> 46
c alp_Class_0_8 <-> 46
c alp_Class_3_9 <-> 46
c alp_Class_2_9 <-> 46
c alp_Class_0_9 <-> 46
c alp_Class_3_2 <-> 47
c alp_Class_3_3 <-> 47
c alp_Class_3_7 <-> 47
c Class_P300 <-> 47
c alp_Class_1_0 <-> 48
c alp_Class_1_1 <-> 48
c alp_Class_1_4 <-> 48
c alp_Class_1_5 <-> 48
c alp_Class_1_6 <-> 48
c alp_Class_1_8 <-> 48
c alp_Class_1_9 <-> 48
c Class_P100 <-> 48
c phi_T_transitions_consistency <-> 49
c tau_0_3_Class_3 <-> 96
c tau_0_3_Class_2 <-> 98
c tau_0_3_Class_1 <-> 99
c tau_0_3_Class_0 <-> 100
c tau_0_2_Class_3 <-> 113
c tau_0_2_Class_2 <-> 115
c tau_0_2_Class_1 <-> 116
c tau_0_2_Class_0 <-> 117
c tau_0_1_Class_3 <-> 118
c tau_0_1_Class_2 <-> 119
c tau_0_1_Class_1 <-> 120
c tau_0_1_Class_0 <-> 121
c tau_0_0_Class_3 <-> 122
c tau_0_0_Class_2 <-> 123
c tau_0_0_Class_1 <-> 124
c tau_0_0_Class_0 <-> 125
c phi_T_feature_det <-> 126
c lam_0_median_income <-> 129
c lam_0_population <-> 130
p wcnf 130 347 11  
11 1 0
11 2 -3 0
11 2 -8 0
11 -2 8 3 0
1 2 0
11 -3 4 0
11 -3 129 0
11 3 -129 -4 0
11 -4 -122 0
11 -4 5 0
11 4 -5 122 0
11 -5 -123 0
11 -5 6 0
11 5 -6 123 0
11 -6 7 0
11 -6 -125 0
11 6 125 -7 0
11 7 124 0
11 7 -48 0
11 -7 48 -124 0
11 -8 9 0
11 -8 130 0
11 8 -130 -9 0
11 -9 -96 0
11 -9 10 0
11 9 -10 96 0
11 -10 -98 0
11 -10 11 0
11 10 -11 98 0
11 -11 12 0
11 -11 -100 0
11 11 100 -12 0
11 12 99 0
11 12 -48 0
11 -12 48 -99 0
11 13 -8 0
11 13 -14 0
11 -13 14 8 0
1 13 0
11 -14 15 0
11 -14 129 0
11 14 -129 -15 0
11 -15 -118 0
11 -15 16 0
11 15 -16 118 0
11 -16 -119 0
11 -16 17 0
11 16 -17 119 0
11 -17 18 0
11 -17 -121 0
11 17 121 -18 0
11 18 120 0
11 18 -48 0
11 -18 48 -120 0
11 19 -20 0
11 19 -21 0
11 -19 21 20 0
1 19 0
11 -20 22 0
11 -20 129 0
11 20 -129 -22 0
11 -21 22 0
11 -21 130 0
11 21 -130 -22 0
11 -22 23 0
11 -22 24 0
11 22 -24 -23 0
11 23 118 0
11 23 -47 0
11 -23 47 -118 0
11 -24 -119 0
11 -24 25 0
11 24 -25 119 0
11 -25 -120 0
11 -25 -121 0
11 25 121 120 0
11 26 -3 0
11 26 -27 0
11 -26 27 3 0
1 26 0
11 -27 28 0
11 -27 130 0
11 27 -130 -28 0
11 -28 -113 0
11 -28 29 0
11 28 -29 113 0
11 -29 -115 0
11 -29 30 0
11 29 -30 115 0
11 -30 31 0
11 -30 -117 0
11 30 117 -31 0
11 31 116 0
11 31 -48 0
11 -31 48 -116 0
11 32 -21 0
11 32 -33 0
11 -32 33 21 0
1 32 0
11 -33 34 0
11 -33 129 0
11 33 -129 -34 0
11 -34 35 0
11 -34 36 0
11 34 -36 -35 0
11 35 122 0
11 35 -47 0
11 -35 47 -122 0
11 -36 -123 0
11 -36 37 0
11 36 -37 123 0
11 -37 -124 0
11 -37 -125 0
11 37 125 124 0
11 38 -20 0
11 38 -39 0
11 -38 39 20 0
1 38 0
11 -39 40 0
11 -39 130 0
11 39 -130 -40 0
11 -40 41 0
11 -40 42 0
11 40 -42 -41 0
11 41 113 0
11 41 -47 0
11 -41 47 -113 0
11 -42 -115 0
11 -42 43 0
11 42 -43 115 0
11 -43 -116 0
11 -43 -117 0
11 43 117 116 0
11 44 -3 0
11 44 -45 0
11 -44 45 3 0
1 44 0
11 -45 4 0
11 -45 130 0
11 45 -130 -4 0
11 -46 0
11 49 129 0
11 49 -50 0
11 -49 50 -129 0
11 49 0
11 -50 -96 0
11 -50 51 0
11 50 -51 96 0
11 -51 -98 0
11 -51 52 0
11 51 -52 98 0
11 -52 -99 0
11 -52 53 0
11 52 -53 99 0
11 -53 -100 0
11 -53 54 0
11 53 -54 100 0
11 -54 -113 0
11 -54 42 0
11 54 -42 113 0
11 55 129 0
11 55 -56 0
11 -55 56 -129 0
11 55 0
11 -56 57 0
11 -56 69 0
11 56 -69 -57 0
11 57 -58 0
11 57 -59 0
11 -57 59 58 0
11 -58 24 0
11 -58 118 0
11 58 -118 -24 0
11 59 -60 0
11 59 -62 0
11 -59 62 60 0
11 -60 61 0
11 -60 119 0
11 60 -119 -61 0
11 -61 -118 0
11 -61 25 0
11 61 -25 118 0
11 62 -63 0
11 62 -66 0
11 -62 66 63 0
11 -63 64 0
11 -63 120 0
11 63 -120 -64 0
11 -64 -118 0
11 -64 65 0
11 64 -65 118 0
11 -65 -119 0
11 -65 -121 0
11 65 121 119 0
11 -66 67 0
11 -66 121 0
11 66 -121 -67 0
11 -67 -118 0
11 -67 68 0
11 67 -68 118 0
11 -68 -119 0
11 -68 -120 0
11 68 120 119 0
11 69 -70 0
11 69 -71 0
11 -69 71 70 0
11 -70 36 0
11 -70 122 0
11 70 -122 -36 0
11 71 -72 0
11 71 -74 0
11 -71 74 72 0
11 -72 73 0
11 -72 123 0
11 72 -123 -73 0
11 -73 -122 0
11 -73 37 0
11 73 -37 122 0
11 74 -75 0
11 74 -78 0
11 -74 78 75 0
11 -75 76 0
11 -75 124 0
11 75 -124 -76 0
11 -76 -122 0
11 -76 77 0
11 76 -77 122 0
11 -77 -123 0
11 -77 -125 0
11 77 125 123 0
11 -78 79 0
11 -78 125 0
11 78 -125 -79 0
11 -79 -122 0
11 -79 80 0
11 79 -80 122 0
11 -80 -123 0
11 -80 -124 0
11 80 124 123 0
11 81 130 0
11 81 -82 0
11 -81 82 -130 0
11 81 0
11 -82 83 0
11 -82 101 0
11 82 -101 -83 0
11 83 -84 0
11 83 -86 0
11 -83 86 84 0
11 -84 85 0
11 -84 96 0
11 84 -96 -85 0
11 -85 -98 0
11 -85 89 0
11 85 -89 98 0
11 86 -87 0
11 86 -90 0
11 -86 90 87 0
11 -87 88 0
11 -87 98 0
11 87 -98 -88 0
11 -88 -96 0
11 -88 89 0
11 88 -89 96 0
11 -89 -99 0
11 -89 -100 0
11 89 100 99 0
11 90 -91 0
11 90 -94 0
11 -90 94 91 0
11 -91 92 0
11 -91 99 0
11 91 -99 -92 0
11 -92 -96 0
11 -92 93 0
11 92 -93 96 0
11 -93 -98 0
11 -93 -100 0
11 93 100 98 0
11 -94 95 0
11 -94 100 0
11 94 -100 -95 0
11 -95 -96 0
11 -95 97 0
11 95 -97 96 0
11 -97 -98 0
11 -97 -99 0
11 97 99 98 0
11 -101 56 0
11 -101 102 0
11 101 -102 -56 0
11 102 -103 0
11 102 -104 0
11 -102 104 103 0
11 -103 42 0
11 -103 113 0
11 103 -113 -42 0
11 104 -105 0
11 104 -107 0
11 -104 107 105 0
11 -105 106 0
11 -105 115 0
11 105 -115 -106 0
11 -106 -113 0
11 -106 43 0
11 106 -43 113 0
11 107 -108 0
11 107 -111 0
11 -107 111 108 0
11 -108 109 0
11 -108 116 0
11 108 -116 -109 0
11 -109 -113 0
11 -109 110 0
11 109 -110 113 0
11 -110 -115 0
11 -110 -117 0
11 110 117 115 0
11 -111 112 0
11 -111 117 0
11 111 -117 -112 0
11 -112 -113 0
11 -112 114 0
11 112 -114 113 0
11 -114 -115 0
11 -114 -116 0
11 114 116 115 0
11 126 -127 0
11 126 -128 0
11 -126 128 127 0
11 126 0
11 -127 -130 0
11 -127 129 0
11 127 -129 130 0
11 -128 -129 0
11 -128 130 0
11 128 -130 129 0
